Academic license - for non-commercial use only - expires 2022-11-10
Using license file /home/benedond/Apps/gurobi/gurobi950/gurobi.lic
Using gurobi.env file
Set parameter Threads to value 1
Changed value of parameter TimeLimit to 300.0
   Prev: inf  Min: 0.0  Max: inf  Default: inf
Gurobi Optimizer version 9.1.2 build v9.1.2rc0 (linux64)
Thread count: 2 physical cores, 4 logical processors, using up to 1 threads
Optimize a model with 1006 rows, 905 columns and 4295 nonzeros
Model fingerprint: 0x3a515423
Variable types: 40 continuous, 865 integer (865 binary)
Coefficient statistics:
  Matrix range     [5e-02, 3e+02]
  Objective range  [4e-02, 4e-01]
  Bounds range     [1e+00, 1e+00]
  RHS range        [1e+00, 7e+02]
Found heuristic solution: objective 4.3686498
Presolve removed 167 rows and 56 columns
Presolve time: 0.02s
Presolved: 839 rows, 849 columns, 3924 nonzeros
Variable types: 38 continuous, 811 integer (811 binary)

Root relaxation: objective 3.028094e+00, 663 iterations, 0.01 seconds

    Nodes    |    Current Node    |     Objective Bounds      |     Work
 Expl Unexpl |  Obj  Depth IntInf | Incumbent    BestBd   Gap | It/Node Time

     0     0    3.02809    0   73    4.36865    3.02809  30.7%     -    0s
H    0     0                       3.7714278    3.02809  19.7%     -    0s
H    0     0                       3.6875392    3.02809  17.9%     -    0s
H    0     0                       3.4635674    3.02809  12.6%     -    0s
     0     0    3.04749    0   62    3.46357    3.04749  12.0%     -    0s
H    0     0                       3.4583351    3.04749  11.9%     -    0s
H    0     0                       3.4202725    3.04749  10.9%     -    0s
H    0     0                       3.4156535    3.04749  10.8%     -    0s
     0     0    3.06377    0   71    3.41565    3.06377  10.3%     -    0s
     0     0    3.09954    0   65    3.41565    3.09954  9.25%     -    0s
     0     0    3.10651    0   89    3.41565    3.10651  9.05%     -    0s
     0     0    3.12858    0   80    3.41565    3.12858  8.40%     -    0s
     0     0    3.14318    0   51    3.41565    3.14318  7.98%     -    0s
     0     0    3.15215    0   50    3.41565    3.15215  7.71%     -    0s
H    0     0                       3.3439311    3.15215  5.74%     -    0s
     0     0    3.16435    0   62    3.34393    3.16435  5.37%     -    0s
     0     0    3.16823    0   63    3.34393    3.16823  5.25%     -    0s
H    0     0                       3.3368461    3.16823  5.05%     -    0s
H    0     0                       3.3331513    3.16823  4.95%     -    0s
     0     0    3.16899    0   59    3.33315    3.16899  4.92%     -    0s
     0     0    3.16922    0   67    3.33315    3.16922  4.92%     -    0s
H    0     0                       3.3283315    3.16922  4.78%     -    0s
     0     0    3.16970    0   73    3.32833    3.16970  4.77%     -    0s
     0     0    3.17343    0   57    3.32833    3.17343  4.65%     -    0s
H    0     0                       3.3084794    3.17343  4.08%     -    0s
H    0     0                       3.2847690    3.17343  3.39%     -    0s
H    0     0                       3.2758228    3.17343  3.13%     -    0s
     0     0    3.17601    0   54    3.27582    3.17601  3.05%     -    0s
     0     0    3.17719    0   63    3.27582    3.17719  3.01%     -    0s
     0     0    3.17772    0   70    3.27582    3.17772  2.99%     -    0s
     0     0    3.17869    0   67    3.27582    3.17869  2.97%     -    0s
     0     0    3.17921    0   67    3.27582    3.17921  2.95%     -    0s
     0     0    3.17967    0   55    3.27582    3.17967  2.94%     -    0s
     0     0    3.17993    0   65    3.27582    3.17993  2.93%     -    0s
     0     0    3.18195    0   71    3.27582    3.18195  2.87%     -    0s
     0     0    3.18195    0   85    3.27582    3.18195  2.87%     -    0s
     0     0    3.18195    0   83    3.27582    3.18195  2.87%     -    0s
     0     0    3.18195    0   65    3.27582    3.18195  2.87%     -    0s
     0     0    3.18195    0   85    3.27582    3.18195  2.87%     -    0s
H    0     0                       3.2559524    3.18195  2.27%     -    0s
     0     0    3.18195    0   78    3.25595    3.18195  2.27%     -    0s
     0     0    3.18431    0   62    3.25595    3.18431  2.20%     -    0s
H    0     0                       3.2375680    3.18431  1.64%     -    0s
     0     0    3.18442    0   69    3.23757    3.18442  1.64%     -    0s
     0     0    3.18473    0   62    3.23757    3.18473  1.63%     -    0s
     0     0    3.18473    0   60    3.23757    3.18473  1.63%     -    0s
     0     0    3.18473    0   57    3.23757    3.18473  1.63%     -    0s
     0     0    3.18473    0   60    3.23757    3.18473  1.63%     -    0s
     0     0    3.18473    0   56    3.23757    3.18473  1.63%     -    0s
H    0     0                       3.2236617    3.18473  1.21%     -    0s
     0     0    3.18473    0   69    3.22366    3.18473  1.21%     -    0s
     0     0    3.18473    0   60    3.22366    3.18473  1.21%     -    0s
     0     0    3.18581    0   72    3.22366    3.18581  1.17%     -    0s
     0     0    3.18680    0   67    3.22366    3.18680  1.14%     -    0s
     0     0    3.18712    0   78    3.22366    3.18712  1.13%     -    0s
     0     0    3.18735    0   63    3.22366    3.18735  1.13%     -    0s
     0     0    3.18739    0   67    3.22366    3.18739  1.13%     -    0s
     0     0    3.18783    0   79    3.22366    3.18783  1.11%     -    0s
     0     0    3.18790    0   84    3.22366    3.18790  1.11%     -    0s
     0     0    3.18801    0   75    3.22366    3.18801  1.11%     -    0s
     0     0    3.18801    0   72    3.22366    3.18801  1.11%     -    0s
     0     0    3.19042    0   55    3.22366    3.19042  1.03%     -    0s
     0     0    3.19042    0   55    3.22366    3.19042  1.03%     -    0s
     0     0    3.19042    0   74    3.22366    3.19042  1.03%     -    0s
     0     0    3.19042    0   61    3.22366    3.19042  1.03%     -    0s
     0     0    3.19042    0   73    3.22366    3.19042  1.03%     -    0s
     0     0    3.19042    0   68    3.22366    3.19042  1.03%     -    0s
     0     0    3.19042    0   49    3.22366    3.19042  1.03%     -    0s
     0     0    3.19042    0   71    3.22366    3.19042  1.03%     -    0s
     0     0    3.19042    0   57    3.22366    3.19042  1.03%     -    0s
     0     0    3.19042    0   74    3.22366    3.19042  1.03%     -    0s
     0     0    3.19042    0   67    3.22366    3.19042  1.03%     -    0s
     0     0    3.19042    0   74    3.22366    3.19042  1.03%     -    0s
     0     0    3.19042    0   79    3.22366    3.19042  1.03%     -    0s
     0     0    3.19042    0   92    3.22366    3.19042  1.03%     -    0s
     0     0    3.19042    0   80    3.22366    3.19042  1.03%     -    0s
     0     0    3.19042    0   82    3.22366    3.19042  1.03%     -    0s
     0     0    3.19042    0   87    3.22366    3.19042  1.03%     -    0s
     0     0    3.19042    0   92    3.22366    3.19042  1.03%     -    0s
     0     0    3.19042    0   91    3.22366    3.19042  1.03%     -    0s
     0     0    3.19042    0   89    3.22366    3.19042  1.03%     -    0s
     0     0    3.19042    0   84    3.22366    3.19042  1.03%     -    0s
     0     0    3.19042    0   84    3.22366    3.19042  1.03%     -    0s
     0     2    3.19252    0   84    3.22366    3.19252  0.97%     -    0s
H   26    10                       3.2196557    3.19252  0.84%  15.4    1s

Cutting planes:
  Cover: 15
  Implied bound: 12
  Clique: 4
  MIR: 22
  StrongCG: 4
  Zero half: 2
  Mod-K: 1
  RLT: 14
  Relax-and-lift: 40

Explored 142 nodes (9407 simplex iterations) in 1.13 seconds
Thread count was 1 (of 4 available processors)

Solution count 10: 3.21966 3.22366 3.23757 ... 3.33685

Optimal solution found (tolerance 1.00e-04)
Best objective 3.219655659710e+00, best bound 3.219655659710e+00, gap 0.0000%
